; DUP2 SWAP3 SWAP1 SLOAD DUP4 SWAP2 => DUP2 SWAP1 SLOAD DUP3 SWAP4
(set-option :produce-proofs true)
; 
(set-info :status unknown)
(declare-fun storage_t ((_ BitVec 256) (_ BitVec 256) (_ BitVec 256) (_ BitVec 256) Int (_ BitVec 256)) (_ BitVec 256))
(declare-fun storage_s ((_ BitVec 256) (_ BitVec 256) (_ BitVec 256) (_ BitVec 256) Int (_ BitVec 256)) (_ BitVec 256))
(declare-fun exc_halt_t (Int) Bool)
(declare-fun exc_halt_s (Int) Bool)
(declare-fun stack_t ((_ BitVec 256) (_ BitVec 256) (_ BitVec 256) (_ BitVec 256) Int (_ BitVec 6)) (_ BitVec 256))
(declare-fun stack_s ((_ BitVec 256) (_ BitVec 256) (_ BitVec 256) (_ BitVec 256) Int (_ BitVec 6)) (_ BitVec 256))
(declare-fun sc_t (Int) (_ BitVec 6))
(declare-fun sc_s (Int) (_ BitVec 6))
(declare-fun used_gas_t ((_ BitVec 256) (_ BitVec 256) (_ BitVec 256) (_ BitVec 256) Int) Int)
(declare-fun used_gas_s ((_ BitVec 256) (_ BitVec 256) (_ BitVec 256) (_ BitVec 256) Int) Int)
(assert
 (exists ((x_0 (_ BitVec 256)) (x_1 (_ BitVec 256)) (x_2 (_ BitVec 256)) (x_SLOAD_0 (_ BitVec 256)) )(let (($x3375 (forall ((w (_ BitVec 256)) )(let ((?x2251 (storage_t x_0 x_1 x_2 x_SLOAD_0 5 w)))
 (let ((?x1493 (storage_s x_0 x_1 x_2 x_SLOAD_0 6 w)))
 (= ?x1493 ?x2251))))
 ))
 (let (($x886 (exc_halt_t 5)))
 (let (($x772 (exc_halt_s 6)))
 (let (($x889 (= $x772 $x886)))
 (let (($x3173 (forall ((n (_ BitVec 6)) )(let ((?x9380 (stack_t x_0 x_1 x_2 x_SLOAD_0 5 n)))
 (let ((?x1197 (stack_s x_0 x_1 x_2 x_SLOAD_0 6 n)))
 (let (($x1492 (= ?x1197 ?x9380)))
 (let ((?x919 (sc_t 5)))
 (let (($x644 (bvsle ?x919 n)))
 (or $x644 $x1492)))))))
 ))
 (let ((?x919 (sc_t 5)))
 (let ((?x926 (sc_s 6)))
 (let (($x929 (= ?x926 ?x919)))
 (let ((?x4893 (used_gas_t x_0 x_1 x_2 x_SLOAD_0 0)))
 (let ((?x27 (used_gas_s x_0 x_1 x_2 x_SLOAD_0 0)))
 (let (($x1542 (= ?x27 ?x4893)))
 (let (($x567 (forall ((w (_ BitVec 256)) )(let ((?x4352 (storage_t x_0 x_1 x_2 x_SLOAD_0 0 w)))
 (let ((?x1475 (storage_s x_0 x_1 x_2 x_SLOAD_0 0 w)))
 (= ?x1475 ?x4352))))
 ))
 (let (($x56 (exc_halt_t 0)))
 (let (($x57 (exc_halt_s 0)))
 (let (($x58 (= $x57 $x56)))
 (let (($x1799 (forall ((n (_ BitVec 6)) )(let ((?x4513 (stack_t x_0 x_1 x_2 x_SLOAD_0 0 n)))
 (let ((?x3108 (stack_s x_0 x_1 x_2 x_SLOAD_0 0 n)))
 (let (($x5262 (= ?x3108 ?x4513)))
 (let ((?x63 (sc_t 0)))
 (let (($x2695 (bvsle ?x63 n)))
 (or $x2695 $x5262)))))))
 ))
 (let ((?x63 (sc_t 0)))
 (let ((?x72 (sc_s 0)))
 (let (($x73 (= ?x72 ?x63)))
 (let (($x2310 (= $x886 (or (exc_halt_t 4) (not (bvsle (_ bv0 6) (bvadd (_ bv59 6) (sc_t 4))))))))
 (let (($x8529 (forall ((w (_ BitVec 256)) )(let ((?x6621 (storage_t x_0 x_1 x_2 x_SLOAD_0 4 w)))
 (let ((?x2251 (storage_t x_0 x_1 x_2 x_SLOAD_0 5 w)))
 (= ?x2251 ?x6621))))
 ))
 (let (($x1296 (forall ((n (_ BitVec 6)) )(let ((?x9285 (stack_t x_0 x_1 x_2 x_SLOAD_0 4 n)))
 (let ((?x9380 (stack_t x_0 x_1 x_2 x_SLOAD_0 5 n)))
 (or (bvsle (bvadd (_ bv59 6) (sc_t 4)) n) (= ?x9380 ?x9285)))))
 ))
 (let (($x3327 (= (used_gas_t x_0 x_1 x_2 x_SLOAD_0 5) (+ 3 (used_gas_t x_0 x_1 x_2 x_SLOAD_0 4)))))
 (let (($x4407 (= (stack_t x_0 x_1 x_2 x_SLOAD_0 5 (bvadd (_ bv62 6) ?x919)) (stack_t x_0 x_1 x_2 x_SLOAD_0 4 (bvadd (_ bv62 6) (sc_t 4))))))
 (let (($x1182 (= (stack_t x_0 x_1 x_2 x_SLOAD_0 5 (bvadd (_ bv61 6) ?x919)) (stack_t x_0 x_1 x_2 x_SLOAD_0 4 (bvadd (_ bv61 6) (sc_t 4))))))
 (let (($x8705 (= (stack_t x_0 x_1 x_2 x_SLOAD_0 5 (bvadd (_ bv60 6) ?x919)) (stack_t x_0 x_1 x_2 x_SLOAD_0 4 (bvadd (_ bv60 6) (sc_t 4))))))
 (let ((?x3757 (sc_t 4)))
 (let ((?x3514 (bvadd (_ bv63 6) ?x3757)))
 (let ((?x5729 (stack_t x_0 x_1 x_2 x_SLOAD_0 4 ?x3514)))
 (let (($x899 (= (stack_t x_0 x_1 x_2 x_SLOAD_0 5 (bvadd (_ bv63 6) ?x919)) (stack_t x_0 x_1 x_2 x_SLOAD_0 4 (bvadd (_ bv59 6) ?x3757)))))
 (let (($x10336 (exc_halt_t 3)))
 (let (($x3898 (or (not (= ((_ extract 6 6) (bvadd (_ bv1 7) (concat (_ bv0 1) (sc_t 3)))) (_ bv0 1))) (not (bvsle (_ bv0 6) (bvadd (_ bv61 6) (sc_t 3)))) $x10336)))
 (let (($x3723 (exc_halt_t 4)))
 (let (($x6429 (forall ((w (_ BitVec 256)) )(let ((?x1516 (storage_t x_0 x_1 x_2 x_SLOAD_0 3 w)))
 (let ((?x6621 (storage_t x_0 x_1 x_2 x_SLOAD_0 4 w)))
 (= ?x6621 ?x1516))))
 ))
 (let (($x10108 (forall ((n (_ BitVec 6)) )(let ((?x1477 (stack_t x_0 x_1 x_2 x_SLOAD_0 3 n)))
 (let ((?x9285 (stack_t x_0 x_1 x_2 x_SLOAD_0 4 n)))
 (or (bvsle (bvadd (_ bv61 6) (sc_t 3)) n) (= ?x9285 ?x1477)))))
 ))
 (let ((?x6059 (used_gas_t x_0 x_1 x_2 x_SLOAD_0 4)))
 (let ((?x2012 (sc_t 3)))
 (let ((?x8054 (bvadd (_ bv63 6) ?x2012)))
 (let ((?x4943 (stack_t x_0 x_1 x_2 x_SLOAD_0 3 ?x8054)))
 (let ((?x8350 (bvadd (_ bv62 6) ?x2012)))
 (let ((?x435 (stack_t x_0 x_1 x_2 x_SLOAD_0 3 ?x8350)))
 (let ((?x422 (bvadd (_ bv61 6) ?x2012)))
 (let ((?x4382 (stack_t x_0 x_1 x_2 x_SLOAD_0 3 ?x422)))
 (let (($x1773 (= $x10336 (or (exc_halt_t 2) (not (bvsle (_ bv0 6) (bvadd (_ bv63 6) (sc_t 2))))))))
 (let (($x7271 (forall ((w (_ BitVec 256)) )(let ((?x5491 (storage_t x_0 x_1 x_2 x_SLOAD_0 2 w)))
 (let ((?x1516 (storage_t x_0 x_1 x_2 x_SLOAD_0 3 w)))
 (= ?x1516 ?x5491))))
 ))
 (let (($x6215 (forall ((n (_ BitVec 6)) )(let ((?x9515 (stack_t x_0 x_1 x_2 x_SLOAD_0 2 n)))
 (let ((?x1477 (stack_t x_0 x_1 x_2 x_SLOAD_0 3 n)))
 (let (($x8850 (= ?x1477 ?x9515)))
 (let ((?x4056 (sc_t 2)))
 (let ((?x2466 (bvadd (_ bv63 6) ?x4056)))
 (let (($x1412 (bvsle ?x2466 n)))
 (or $x1412 $x8850))))))))
 ))
 (let ((?x4056 (sc_t 2)))
 (let (($x2384 (= ?x2012 ?x4056)))
 (let ((?x7881 (used_gas_t x_0 x_1 x_2 x_SLOAD_0 3)))
 (let ((?x2466 (bvadd (_ bv63 6) ?x4056)))
 (let ((?x11004 (stack_t x_0 x_1 x_2 x_SLOAD_0 2 ?x2466)))
 (let (($x903 (exc_halt_t 2)))
 (let (($x1727 (= $x903 (or (exc_halt_t 1) (not (bvsle (_ bv0 6) (bvadd (_ bv62 6) (sc_t 1))))))))
 (let (($x5765 (forall ((w (_ BitVec 256)) )(let ((?x799 (storage_t x_0 x_1 x_2 x_SLOAD_0 1 w)))
 (let ((?x5491 (storage_t x_0 x_1 x_2 x_SLOAD_0 2 w)))
 (= ?x5491 ?x799))))
 ))
 (let (($x3070 (forall ((n (_ BitVec 6)) )(let ((?x9805 (stack_t x_0 x_1 x_2 x_SLOAD_0 1 n)))
 (let ((?x9515 (stack_t x_0 x_1 x_2 x_SLOAD_0 2 n)))
 (let (($x8735 (= ?x9515 ?x9805)))
 (or (bvsle (bvadd (_ bv62 6) (sc_t 1)) n) $x8735)))))
 ))
 (let ((?x3220 (used_gas_t x_0 x_1 x_2 x_SLOAD_0 2)))
 (let (($x5472 (= ?x3220 (+ 3 (used_gas_t x_0 x_1 x_2 x_SLOAD_0 1)))))
 (let ((?x4023 (sc_t 1)))
 (let ((?x5606 (bvadd (_ bv63 6) ?x4023)))
 (let ((?x5769 (stack_t x_0 x_1 x_2 x_SLOAD_0 1 ?x5606)))
 (let ((?x3760 (stack_t x_0 x_1 x_2 x_SLOAD_0 2 (bvadd (_ bv62 6) ?x4056))))
 (let (($x8823 (not (= ((_ extract 6 6) (bvadd (_ bv1 7) (concat (_ bv0 1) ?x63))) (_ bv0 1)))))
 (let (($x1920 (exc_halt_t 1)))
 (let (($x3662 (forall ((w (_ BitVec 256)) )(let ((?x4352 (storage_t x_0 x_1 x_2 x_SLOAD_0 0 w)))
 (let ((?x799 (storage_t x_0 x_1 x_2 x_SLOAD_0 1 w)))
 (= ?x799 ?x4352))))
 ))
 (let (($x2321 (forall ((n (_ BitVec 6)) )(let ((?x4513 (stack_t x_0 x_1 x_2 x_SLOAD_0 0 n)))
 (let ((?x9805 (stack_t x_0 x_1 x_2 x_SLOAD_0 1 n)))
 (let (($x1710 (= ?x9805 ?x4513)))
 (or $x1710 (bvsle (bvadd (_ bv62 6) (sc_t 0)) n))))))
 ))
 (let (($x10931 (= ?x4023 (bvadd (_ bv1 6) ?x63))))
 (let ((?x5043 (used_gas_t x_0 x_1 x_2 x_SLOAD_0 1)))
 (let (($x801 (= ?x5043 (+ 3 ?x4893))))
 (let (($x1752 (= (stack_t x_0 x_1 x_2 x_SLOAD_0 1 (bvadd (_ bv63 6) ?x63)) (stack_t x_0 x_1 x_2 x_SLOAD_0 0 (bvadd (_ bv63 6) ?x63)))))
 (let ((?x395 (bvadd (_ bv62 6) ?x63)))
 (let ((?x9263 (stack_t x_0 x_1 x_2 x_SLOAD_0 0 ?x395)))
 (let (($x7985 (= (stack_t x_0 x_1 x_2 x_SLOAD_0 1 ?x395) ?x9263)))
 (let (($x9507 (= $x772 (or (exc_halt_s 5) (not (bvsle (_ bv0 6) (bvadd (_ bv61 6) (sc_s 5))))))))
 (let (($x2093 (forall ((w (_ BitVec 256)) )(let ((?x449 (storage_s x_0 x_1 x_2 x_SLOAD_0 5 w)))
 (let ((?x1493 (storage_s x_0 x_1 x_2 x_SLOAD_0 6 w)))
 (= ?x1493 ?x449))))
 ))
 (let (($x2451 (forall ((n (_ BitVec 6)) )(let ((?x6232 (stack_s x_0 x_1 x_2 x_SLOAD_0 5 n)))
 (let ((?x1197 (stack_s x_0 x_1 x_2 x_SLOAD_0 6 n)))
 (or (= ?x1197 ?x6232) (bvsle (bvadd (_ bv61 6) (sc_s 5)) n)))))
 ))
 (let (($x768 (= (used_gas_s x_0 x_1 x_2 x_SLOAD_0 6) (+ 3 (used_gas_s x_0 x_1 x_2 x_SLOAD_0 5)))))
 (let (($x3660 (= (stack_s x_0 x_1 x_2 x_SLOAD_0 6 (bvadd (_ bv62 6) ?x926)) (stack_s x_0 x_1 x_2 x_SLOAD_0 5 (bvadd (_ bv62 6) (sc_s 5))))))
 (let ((?x805 (sc_s 5)))
 (let ((?x1911 (bvadd (_ bv63 6) ?x805)))
 (let ((?x9598 (stack_s x_0 x_1 x_2 x_SLOAD_0 5 ?x1911)))
 (let (($x6293 (= (stack_s x_0 x_1 x_2 x_SLOAD_0 6 (bvadd (_ bv63 6) ?x926)) (stack_s x_0 x_1 x_2 x_SLOAD_0 5 (bvadd (_ bv61 6) ?x805)))))
 (let (($x64 (exc_halt_s 4)))
 (let (($x6917 (or $x64 (not (bvsle (_ bv0 6) (bvadd (_ bv60 6) (sc_s 4)))) (not (= ((_ extract 6 6) (bvadd (_ bv1 7) (concat (_ bv0 1) (sc_s 4)))) (_ bv0 1))))))
 (let (($x3979 (exc_halt_s 5)))
 (let (($x8869 (forall ((w (_ BitVec 256)) )(let ((?x9889 (storage_s x_0 x_1 x_2 x_SLOAD_0 4 w)))
 (let ((?x449 (storage_s x_0 x_1 x_2 x_SLOAD_0 5 w)))
 (= ?x449 ?x9889))))
 ))
 (let (($x8153 (forall ((n (_ BitVec 6)) )(let ((?x674 (stack_s x_0 x_1 x_2 x_SLOAD_0 4 n)))
 (let ((?x6232 (stack_s x_0 x_1 x_2 x_SLOAD_0 5 n)))
 (or (bvsle (bvadd (_ bv60 6) (sc_s 4)) n) (= ?x6232 ?x674)))))
 ))
 (let ((?x9436 (used_gas_s x_0 x_1 x_2 x_SLOAD_0 5)))
 (let ((?x4305 (sc_s 4)))
 (let ((?x4412 (bvadd (_ bv63 6) ?x4305)))
 (let ((?x7617 (stack_s x_0 x_1 x_2 x_SLOAD_0 4 ?x4412)))
 (let (($x2386 (= (stack_s x_0 x_1 x_2 x_SLOAD_0 5 (bvadd (_ bv62 6) ?x4305)) (stack_s x_0 x_1 x_2 x_SLOAD_0 4 (bvadd (_ bv62 6) ?x4305)))))
 (let (($x6238 (= (stack_s x_0 x_1 x_2 x_SLOAD_0 5 (bvadd (_ bv61 6) ?x4305)) (stack_s x_0 x_1 x_2 x_SLOAD_0 4 (bvadd (_ bv61 6) ?x4305)))))
 (let ((?x1366 (bvadd (_ bv60 6) ?x4305)))
 (let ((?x1933 (stack_s x_0 x_1 x_2 x_SLOAD_0 4 ?x1366)))
 (let (($x1169 (= $x64 (or (exc_halt_s 3) (not (bvsle (_ bv0 6) (bvadd (_ bv63 6) (sc_s 3))))))))
 (let (($x7033 (forall ((w (_ BitVec 256)) )(let ((?x3582 (storage_s x_0 x_1 x_2 x_SLOAD_0 3 w)))
 (let ((?x9889 (storage_s x_0 x_1 x_2 x_SLOAD_0 4 w)))
 (= ?x9889 ?x3582))))
 ))
 (let (($x3644 (forall ((n (_ BitVec 6)) )(let ((?x417 (stack_s x_0 x_1 x_2 x_SLOAD_0 3 n)))
 (let ((?x674 (stack_s x_0 x_1 x_2 x_SLOAD_0 4 n)))
 (let (($x4102 (= ?x674 ?x417)))
 (or (bvsle (bvadd (_ bv63 6) (sc_s 3)) n) $x4102)))))
 ))
 (let ((?x275 (sc_s 3)))
 (let (($x9792 (= ?x4305 ?x275)))
 (let ((?x940 (used_gas_s x_0 x_1 x_2 x_SLOAD_0 4)))
 (let ((?x11204 (bvadd (_ bv63 6) ?x275)))
 (let ((?x8990 (stack_s x_0 x_1 x_2 x_SLOAD_0 3 ?x11204)))
 (let (($x292 (exc_halt_s 3)))
 (let (($x2187 (= $x292 (or (exc_halt_s 2) (not (bvsle (_ bv0 6) (bvadd (_ bv62 6) (sc_s 2))))))))
 (let (($x1109 (forall ((w (_ BitVec 256)) )(let ((?x7813 (storage_s x_0 x_1 x_2 x_SLOAD_0 2 w)))
 (let ((?x3582 (storage_s x_0 x_1 x_2 x_SLOAD_0 3 w)))
 (= ?x3582 ?x7813))))
 ))
 (let (($x9396 (forall ((n (_ BitVec 6)) )(let ((?x5358 (stack_s x_0 x_1 x_2 x_SLOAD_0 2 n)))
 (let ((?x417 (stack_s x_0 x_1 x_2 x_SLOAD_0 3 n)))
 (let (($x1633 (= ?x417 ?x5358)))
 (or (bvsle (bvadd (_ bv62 6) (sc_s 2)) n) $x1633)))))
 ))
 (let ((?x218 (sc_s 2)))
 (let (($x10403 (= ?x275 ?x218)))
 (let ((?x479 (used_gas_s x_0 x_1 x_2 x_SLOAD_0 3)))
 (let (($x488 (= ?x479 (+ 3 (used_gas_s x_0 x_1 x_2 x_SLOAD_0 2)))))
 (let ((?x3669 (bvadd (_ bv63 6) ?x218)))
 (let ((?x8217 (stack_s x_0 x_1 x_2 x_SLOAD_0 2 ?x3669)))
 (let ((?x10692 (bvadd (_ bv62 6) ?x275)))
 (let ((?x4470 (stack_s x_0 x_1 x_2 x_SLOAD_0 3 ?x10692)))
 (let (($x247 (exc_halt_s 2)))
 (let (($x4467 (= $x247 (or (exc_halt_s 1) (not (bvsle (_ bv0 6) (bvadd (_ bv60 6) (sc_s 1))))))))
 (let (($x565 (forall ((w (_ BitVec 256)) )(let ((?x457 (storage_s x_0 x_1 x_2 x_SLOAD_0 1 w)))
 (let ((?x7813 (storage_s x_0 x_1 x_2 x_SLOAD_0 2 w)))
 (= ?x7813 ?x457))))
 ))
 (let (($x2659 (forall ((n (_ BitVec 6)) )(let ((?x10898 (stack_s x_0 x_1 x_2 x_SLOAD_0 1 n)))
 (let ((?x5358 (stack_s x_0 x_1 x_2 x_SLOAD_0 2 n)))
 (or (bvsle (bvadd (_ bv60 6) (sc_s 1)) n) (= ?x5358 ?x10898)))))
 ))
 (let ((?x154 (sc_s 1)))
 (let (($x1458 (= ?x218 ?x154)))
 (let ((?x9425 (used_gas_s x_0 x_1 x_2 x_SLOAD_0 2)))
 (let (($x1771 (= ?x9425 (+ 3 (used_gas_s x_0 x_1 x_2 x_SLOAD_0 1)))))
 (let ((?x615 (stack_s x_0 x_1 x_2 x_SLOAD_0 1 (bvadd (_ bv62 6) ?x154))))
 (let ((?x1632 (bvadd (_ bv62 6) ?x218)))
 (let ((?x10427 (stack_s x_0 x_1 x_2 x_SLOAD_0 2 ?x1632)))
 (let (($x9578 (= ?x10427 ?x615)))
 (let ((?x9499 (stack_s x_0 x_1 x_2 x_SLOAD_0 1 (bvadd (_ bv61 6) ?x154))))
 (let ((?x1294 (bvadd (_ bv61 6) ?x218)))
 (let ((?x1550 (stack_s x_0 x_1 x_2 x_SLOAD_0 2 ?x1294)))
 (let (($x356 (= ?x1550 ?x9499)))
 (let ((?x1806 (bvadd (_ bv63 6) ?x154)))
 (let ((?x1809 (stack_s x_0 x_1 x_2 x_SLOAD_0 1 ?x1806)))
 (let ((?x1681 (bvadd (_ bv60 6) ?x218)))
 (let ((?x520 (stack_s x_0 x_1 x_2 x_SLOAD_0 2 ?x1681)))
 (let (($x1946 (= ?x520 ?x1809)))
 (let ((?x589 (bvadd (_ bv60 6) ?x154)))
 (let ((?x7831 (stack_s x_0 x_1 x_2 x_SLOAD_0 1 ?x589)))
 (let (($x865 (= ?x8217 ?x7831)))
 (let (($x5069 (not (= ((_ extract 6 6) (bvadd (_ bv1 7) (concat (_ bv0 1) ?x72))) (_ bv0 1)))))
 (let (($x189 (exc_halt_s 1)))
 (let (($x3183 (forall ((w (_ BitVec 256)) )(let ((?x1475 (storage_s x_0 x_1 x_2 x_SLOAD_0 0 w)))
 (let ((?x457 (storage_s x_0 x_1 x_2 x_SLOAD_0 1 w)))
 (= ?x457 ?x1475))))
 ))
 (let (($x3743 (forall ((n (_ BitVec 6)) )(let ((?x3108 (stack_s x_0 x_1 x_2 x_SLOAD_0 0 n)))
 (let ((?x10898 (stack_s x_0 x_1 x_2 x_SLOAD_0 1 n)))
 (let (($x9081 (= ?x10898 ?x3108)))
 (or (bvsle (bvadd (_ bv62 6) (sc_s 0)) n) $x9081)))))
 ))
 (let (($x10892 (= ?x154 (bvadd (_ bv1 6) ?x72))))
 (let ((?x6941 (used_gas_s x_0 x_1 x_2 x_SLOAD_0 1)))
 (let (($x580 (= ?x6941 (+ 3 ?x27))))
 (let ((?x1510 (bvadd (_ bv63 6) ?x72)))
 (let ((?x1454 (stack_s x_0 x_1 x_2 x_SLOAD_0 0 ?x1510)))
 (let ((?x1088 (bvadd (_ bv62 6) ?x72)))
 (let ((?x3528 (stack_s x_0 x_1 x_2 x_SLOAD_0 0 ?x1088)))
 (let (($x6940 (forall ((w (_ BitVec 256)) )(let (($x1317 (= w (stack_s x_0 x_1 x_2 x_SLOAD_0 3 (bvadd (_ bv63 6) (sc_s 3))))))
 (let ((?x1475 (storage_s x_0 x_1 x_2 x_SLOAD_0 0 w)))
 (= ?x1475 (ite $x1317 x_SLOAD_0 (_ bv0 256))))))
 ))
 (let (($x7239 (= ?x27 0)))
 (let (($x4490 (not $x57)))
 (let (($x4515 (= (stack_s x_0 x_1 x_2 x_SLOAD_0 0 (_ bv2 6)) x_2)))
 (let (($x434 (= (stack_s x_0 x_1 x_2 x_SLOAD_0 0 (_ bv1 6)) x_1)))
 (let (($x1653 (= (stack_s x_0 x_1 x_2 x_SLOAD_0 0 (_ bv0 6)) x_0)))
 (let (($x96 (= ?x72 (_ bv3 6))))
 (and $x96 $x1653 $x434 $x4515 $x4490 $x7239 $x6940 (= ?x1809 ?x3528) (= (stack_s x_0 x_1 x_2 x_SLOAD_0 1 ?x1088) ?x3528) (= (stack_s x_0 x_1 x_2 x_SLOAD_0 1 ?x1510) ?x1454) $x580 $x10892 $x3743 $x3183 (= $x189 (or $x57 $x5069 (not (bvsle (_ bv0 6) ?x1088)))) $x865 $x1946 $x356 $x9578 $x1771 $x1458 $x2659 $x565 $x4467 (= ?x8990 ?x10427) (= ?x4470 ?x8217) $x488 $x10403 $x9396 $x1109 $x2187 (= ?x7617 (storage_s x_0 x_1 x_2 x_SLOAD_0 3 ?x8990)) (= ?x940 (+ 200 ?x479)) $x9792 $x3644 $x7033 $x1169 (= ?x9598 ?x1933) (= (stack_s x_0 x_1 x_2 x_SLOAD_0 5 ?x1366) ?x1933) $x6238 $x2386 (= (stack_s x_0 x_1 x_2 x_SLOAD_0 5 ?x4412) ?x7617) (= ?x9436 (+ 3 ?x940)) (= ?x805 (bvadd (_ bv1 6) ?x4305)) $x8153 $x8869 (= $x3979 $x6917) $x6293 (= (stack_s x_0 x_1 x_2 x_SLOAD_0 6 (bvadd (_ bv61 6) ?x926)) ?x9598) $x3660 $x768 (= ?x926 ?x805) $x2451 $x2093 $x9507 (= ?x5769 ?x9263) $x7985 $x1752 $x801 $x10931 $x2321 $x3662 (= $x1920 (or $x56 (not (bvsle (_ bv0 6) ?x395)) $x8823)) (= ?x11004 (stack_t x_0 x_1 x_2 x_SLOAD_0 1 (bvadd (_ bv62 6) ?x4023))) (= ?x3760 ?x5769) $x5472 (= ?x4056 ?x4023) $x3070 $x5765 $x1727 (= ?x4943 (storage_t x_0 x_1 x_2 x_SLOAD_0 2 ?x11004)) (= ?x7881 (+ 200 ?x3220)) $x2384 $x6215 $x7271 $x1773 (= ?x5729 ?x4382) (= (stack_t x_0 x_1 x_2 x_SLOAD_0 4 ?x422) ?x4382) (= (stack_t x_0 x_1 x_2 x_SLOAD_0 4 ?x8350) ?x435) (= (stack_t x_0 x_1 x_2 x_SLOAD_0 4 ?x8054) ?x4943) (= ?x6059 (+ 3 ?x7881)) (= ?x3757 (bvadd (_ bv1 6) ?x2012)) $x10108 $x6429 (= $x3723 $x3898) $x899 (= (stack_t x_0 x_1 x_2 x_SLOAD_0 5 (bvadd (_ bv59 6) ?x919)) ?x5729) $x8705 $x1182 $x4407 $x3327 (= ?x919 ?x3757) $x1296 $x8529 $x2310 $x73 $x1799 $x58 $x567 $x1542 (not (and $x929 $x3173 $x889 $x3375))))))))))))))))))))))))))))))))))))))))))))))))))))))))))))))))))))))))))))))))))))))))))))))))))))))))))))))))))))))))))))))))))))))))))))))))))))))))))))))))
 )
(check-sat)
(get-proof)
